============================[ Problem Statistics ]=============================|                                                                             ||  Number of variables:          4242                                         ||  Number of clauses:            9678                                         ||  Parse time:                   0.08 s                                       ||                                                                             |============================[ Search Statistics ]==============================| Conflicts |          ORIGINAL         |          LEARNT          | Progress ||           |    Vars  Clauses Literals |    Limit  Clauses Lit/Cl |          |==============================================================================================================================================================restarts              : 1conflicts             : 51             (421 /sec)decisions             : 136            (0.00 % random) (1124 /sec)propagations          : 8126           (67157 /sec)conflict literals     : 2238           (95.86 % deleted)CPU time              : 0.121 sSATISFIABLE